8399
45, 19, 41, 8, 10, 9, 43, 33, 51, 11, 52, 14, 13, 27, 28, 12, 26, 47, 29, 20, 23, 21, 42, 7, 2, 30, 50, 16, 46, 44, 25, 4, 6, 15, 5, 48, 24, 38, 37, 40, 39, 34, 35, 36, 49, 32, 1, 22, 31, 18, 17, 3
